45
carp_parvalbumin_4cpv_CD Ca cluster (charge=-2, mult=1)
Ca        6.987000      18.768000      22.117000
C         9.767000      21.949000      22.477000
C         9.225000      20.827000      23.377000
O         8.212000      20.248000      23.219000
O        10.057000      20.625000      24.371000
H        10.495000      21.297000      21.800000
H        10.394000      22.651000      23.195000
H         8.959084      22.340224      21.858683
C         3.400000      19.942000      24.656000
C         4.250000      18.830000      24.044000
O         5.464000      18.945000      23.884000
O         3.645000      17.810000      23.721000
H         2.304000      19.874000      24.182000
H         3.067000      19.457000      25.704000
H         3.966990      20.830524      24.933753
C         7.339000      16.487000      25.103000
O         7.805000      16.934000      23.790000
H         7.615000      15.339000      25.290000
H         6.187000      16.437000      25.418000
H         7.814000      18.107000      23.817000
H         7.830169      17.106894      25.853057
C         5.987000      15.539000      18.378000
C         6.626000      15.853000      20.880000
C         6.479000      14.852000      19.700000
O         6.150000      16.944000      20.903000
O         7.262000      15.272000      21.801000
H         5.280000      14.726000      17.859000
H         5.242000      16.347000      18.831000
H         5.561000      14.168000      20.056000
H         7.472000      14.188000      19.733000
H         6.780355      15.963035      17.762466
C         5.803000      20.719000      17.645000
C         5.673000      20.079000      20.119000
C         4.887000      20.533000      18.888000
O         5.021000      20.199000      21.149000
O         6.785000      19.709000      19.921000
H         6.432000      21.724000      17.725000
H         6.512000      19.771000      17.577000
H         3.828000      20.004000      18.768000
H         4.508000      21.647000      19.085000
H         5.169017      20.807365      16.762754
C        10.158000      17.723000      20.830000
O         9.079000      18.051000      21.267000
H        10.879780      17.153659      21.415649
H        10.418828      18.007859      19.810724
