50
ggr_1glg_GGR Ca cluster (charge=-1, mult=1)
Ca       23.168000      41.519000      73.363000
C        20.968000      37.884000      74.607000
C        20.697000      39.356000      74.399000
O        21.662000      40.102000      74.369000
O        19.510000      39.723000      74.256000
H        19.779000      37.869000      74.790000
H        20.799000      36.797000      74.129000
H        22.012961      37.629860      74.784680
C        24.261000      43.136000      77.561000
C        23.790000      43.314000      76.126000
N        23.933000      44.523000      75.620000
O        23.321000      42.364000      75.501000
H        25.372000      43.340000      77.954000
H        23.826000      44.084000      78.155000
H        23.391000      45.457000      76.121000
H        24.866000      44.845000      74.972000
H        23.747387      42.295412      78.027598
C        20.426000      44.846000      74.631000
C        21.520000      44.374000      73.684000
O        21.661000      43.191000      73.303000
O        22.354000      45.231000      73.255000
H        20.007000      45.814000      74.068000
H        20.720000      45.335000      75.683000
H        19.657418      44.126080      74.912241
C        27.305000      42.401000      71.386000
C        25.454000      43.881000      72.094000
C        26.942000      43.829000      71.826000
N        24.752000      44.923000      71.731000
O        24.949000      42.887000      72.642000
H        26.804000      41.729000      72.226000
H        28.481000      42.261000      71.465000
H        27.308000      44.772000      71.205000
H        27.399000      43.903000      72.922000
H        24.092000      44.994000      70.752000
H        24.697000      45.902000      72.401000
H        27.045023      42.168465      70.353314
C        27.043000      38.162000      72.309000
C        25.437000      39.749000      73.482000
C        26.748000      38.985000      73.559000
O        24.797000      39.779000      72.434000
O        25.008000      40.335000      74.482000
H        26.257000      37.266000      72.233000
H        26.708000      38.724000      71.315000
H        26.974000      38.290000      74.491000
H        27.466000      39.927000      73.681000
H        28.047398      37.739322      72.334074
C        22.005000      41.641000      70.111000
O        22.597000      41.359000      71.165000
H        21.111739      42.265276      70.132576
H        22.379984      41.262780      69.159981
