37
aequorin_1sl8_EF3 apo cluster (charge=-3, mult=1)
C        11.874000      37.653000      61.854000
C        13.199000      38.367000      61.960000
O        13.822000      38.399000      63.062000
O        13.662000      38.901000      60.929000
H        12.290000      36.726000      61.240000
H        11.317000      38.358000      61.083000
H        11.352962      37.585194      62.808998
C        14.845000      41.615000      66.842000
C        15.744000      40.421000      66.468000
O        15.593000      39.835000      65.376000
O        16.665000      40.000000      67.219000
H        14.293000      42.096000      67.778000
H        15.858000      42.193000      67.125000
H        14.039849      41.812977      66.134443
C        18.254000      40.353000      63.130000
C        18.113000      38.875000      63.561000
N        19.199000      38.260000      64.003000
O        17.048000      38.304000      63.427000
H        18.177000      41.072000      64.079000
H        19.376000      40.555000      62.768000
H        19.890000      37.812000      63.150000
H        19.627000      38.620000      65.053000
H        17.662854      40.592577      62.246117
C        11.934000      34.640000      67.512000
C        13.118000      36.751000      66.662000
C        12.219000      36.151000      67.733000
O        13.785000      35.965000      65.899000
O        13.172000      38.024000      66.566000
H        11.199000      34.629000      66.577000
H        13.016000      34.222000      67.327000
H        11.183000      36.728000      67.844000
H        12.745000      36.519000      68.736000
H        11.437504      34.224113      68.388715
C        16.002000      34.857000      62.880000
O        15.602000      35.836000      63.521000
H        16.632441      34.989950      62.000814
H        15.721700      33.852471      63.196943
