38
aequorin_1sl8_EF4 Ca cluster (charge=-1, mult=1)
Ca       21.016000      28.275000      61.763000
C        19.357000      25.406000      64.821000
C        20.545000      26.378000      64.699000
O        20.720000      26.890000      63.547000
O        21.241000      26.673000      65.682000
H        19.968000      24.618000      65.480000
H        18.708000      25.885000      65.699000
H        19.130518      24.924637      63.869635
C        24.462000      25.740000      59.987000
C        23.743000      27.047000      60.359000
O        22.926000      27.191000      61.317000
O        23.907000      28.065000      59.615000
H        25.574000      26.137000      60.177000
H        24.568000      25.404000      58.849000
H        24.293017      24.920708      60.685788
C        23.971000      29.556000      62.939000
O        22.563000      29.845000      62.894000
H        24.023000      29.485000      61.745000
H        24.938000      30.265000      62.917000
H        22.133000      30.241000      63.887000
H        24.295693      29.049902      63.848142
C        16.816000      26.467000      59.229000
C        19.241000      26.873000      59.958000
C        18.292000      26.151000      59.005000
O        18.814000      27.848000      60.600000
O        20.353000      26.368000      60.137000
H        16.781000      27.617000      59.528000
H        16.469000      25.944000      60.239000
H        18.768000      26.566000      57.995000
H        18.404000      24.973000      58.942000
H        16.237783      26.235431      58.334494
C        18.937000      30.443000      63.758000
O        19.717000      29.791000      63.052000
H        19.271881      30.927600      64.675124
H        17.893570      30.534484      63.456362
O        21.618000      29.608000      59.915000
H        21.286000      30.590000      60.492000
H        22.310000      29.997000      59.032000
