35
carp_parvalbumin_4cpv_EF apo cluster (charge=-4, mult=1)
C        14.604000      12.733000      12.929000
C        14.305000      11.498000      13.729000
O        13.483000      10.714000      13.341000
O        14.995000      11.365000      14.806000
H        13.846000      13.544000      13.359000
H        14.301000      12.335000      11.847000
H        15.631070      13.091382      12.998200
C        18.488000       8.829000      17.036000
C        17.337000       9.572000      17.667000
O        16.352000       9.947000      17.062000
O        17.464000       9.791000      18.917000
H        18.466000       7.748000      17.551000
H        19.542000       9.234000      17.433000
H        18.402026       8.738762      15.953149
C        13.181000       8.189000      18.020000
C        13.347000       9.636000      18.397000
O        13.393000      10.541000      17.530000
O        13.426000       9.885000      19.627000
H        14.140000       7.604000      18.438000
H        12.322000       7.667000      18.677000
H        12.906278       8.084042      16.970423
C        18.255000      16.268000      16.484000
C        17.500000      13.876000      16.794000
C        18.646000      14.790000      16.655000
O        16.365000      14.158000      17.203000
O        17.832000      12.736000      16.435000
H        17.999000      16.431000      15.333000
H        17.320000      16.453000      17.190000
H        19.646000      15.165000      17.202000
H        19.329000      13.804000      16.587000
H        19.066901      16.965784      16.688974
C        12.347000      14.183000      16.766000
O        13.347000      13.491000      16.530000
H        11.362099      13.718876      16.714431
H        12.450212      15.237759      17.020816
