43
aequorin_1sl8_EF1 Ca cluster (charge=0, mult=1)
Ca      -15.785000      22.973000      61.276000
C       -11.975000      21.784000      63.079000
C       -13.482000      21.396000      63.064000
O       -14.351000      22.219000      62.700000
O       -13.862000      20.259000      63.383000
H       -10.983000      21.632000      62.390000
H       -11.772000      20.606000      63.116000
H       -11.803711      22.850271      62.931264
C       -17.709000      25.415000      64.646000
C       -17.886000      24.569000      63.401000
N       -18.903000      24.905000      62.645000
O       -17.119000      23.639000      63.100000
H       -17.746000      26.513000      65.113000
H       -18.875000      25.360000      64.897000
H       -19.956000      24.363000      62.774000
H       -19.194000      25.857000      61.993000
H       -16.828904      25.160254      65.236453
C       -18.847000      20.509000      63.518000
C       -18.508000      20.911000      62.100000
N       -19.539000      21.083000      61.289000
O       -17.333000      21.098000      61.734000
H       -19.110000      21.290000      64.375000
H       -19.953000      20.054000      63.453000
H       -20.553000      20.455000      61.357000
H       -19.738000      22.076000      60.682000
H       -18.048175      19.962735      64.019571
C       -12.601000      26.770000      59.771000
C       -14.555000      25.384000      60.649000
C       -14.091000      26.731000      60.161000
O       -14.099000      24.311000      60.142000
O       -15.369000      25.389000      61.592000
H       -12.169000      26.384000      60.806000
H       -12.129000      26.099000      58.897000
H       -15.019000      27.178000      59.560000
H       -14.167000      27.506000      61.068000
H       -12.285806      27.757655      59.434413
C       -14.975000      20.442000      59.003000
O       -15.016000      21.221000      59.964000
H       -15.473718      19.474233      59.055980
H       -14.436996      20.725436      58.098392
O       -17.239000      23.837000      59.748000
H       -16.696000      24.820000      59.409000
H       -18.282000      24.191000      60.175000
